c Standarized MaxSat Instance
c{
c "sha1sum": "86300bc637272160323c1c26f6692c967c4fd350",
c "nvars": 280,
c "ncls": 1007,
c "total_lits": 3725,
c "nhards": 364,
c "nhard_nlits": 812,
c "nhard_len_stats":
c    { "min": 2,
c      "max": 5,
c      "ave": 2.2308,
c      "stddev": 0.7994 },
c "nsofts": 643,
c "nsoft_nlits": 2913,
c "nsoft_len_stats":
c    { "min": 2,
c      "max": 5,
c      "ave": 4.5303,
c      "stddev": 0.6601 },
c "nsoft_wts": 1,
c "soft_wt_stats":
c    { "min": 1,
c      "max": 1,
c      "ave": 1.0000,
c      "stddev": 0.0000 }
c}
c------------------------------------------------------------
c Original instance: kbtree_wcnf.s-suppc_w9-s7-h3-d5/20/kbtree9_7_3_5_20_5.wcsp
c Format: Partial Max-SAT (wcnf)
c Encoding: [SEQUENTIAL] + Support (less SUM 2^#literals direction)
h 1 2 3 4 5 0
h 6 7 8 9 10 0
h 11 12 13 14 15 0
h 16 17 18 19 20 0
h 21 22 23 24 25 0
h 26 27 28 29 30 0
h 31 32 33 34 35 0
h 36 37 38 39 40 0
h 41 42 43 44 45 0
h 46 47 48 49 50 0
h 51 52 53 54 55 0
h 56 57 58 59 60 0
h 61 62 63 64 65 0
h 66 67 68 69 70 0
h 71 72 73 74 75 0
h 76 77 78 79 80 0
h 81 82 83 84 85 0
h 86 87 88 89 90 0
h 91 92 93 94 95 0
h 96 97 98 99 100 0
h 101 102 103 104 105 0
h 106 107 108 109 110 0
h 111 112 113 114 115 0
h 116 117 118 119 120 0
h 121 122 123 124 125 0
h 126 127 128 129 130 0
h 131 132 133 134 135 0
h 136 137 138 139 140 0
h -1 -142 0
h -2 142 0
h -2 -143 0
h -3 143 0
h -3 -144 0
h -4 144 0
h -4 -145 0
h -5 145 0
h -6 -147 0
h -7 147 0
h -7 -148 0
h -8 148 0
h -8 -149 0
h -9 149 0
h -9 -150 0
h -10 150 0
h -11 -152 0
h -12 152 0
h -12 -153 0
h -13 153 0
h -13 -154 0
h -14 154 0
h -14 -155 0
h -15 155 0
h -16 -157 0
h -17 157 0
h -17 -158 0
h -18 158 0
h -18 -159 0
h -19 159 0
h -19 -160 0
h -20 160 0
h -21 -162 0
h -22 162 0
h -22 -163 0
h -23 163 0
h -23 -164 0
h -24 164 0
h -24 -165 0
h -25 165 0
h -26 -167 0
h -27 167 0
h -27 -168 0
h -28 168 0
h -28 -169 0
h -29 169 0
h -29 -170 0
h -30 170 0
h -31 -172 0
h -32 172 0
h -32 -173 0
h -33 173 0
h -33 -174 0
h -34 174 0
h -34 -175 0
h -35 175 0
h -36 -177 0
h -37 177 0
h -37 -178 0
h -38 178 0
h -38 -179 0
h -39 179 0
h -39 -180 0
h -40 180 0
h -41 -182 0
h -42 182 0
h -42 -183 0
h -43 183 0
h -43 -184 0
h -44 184 0
h -44 -185 0
h -45 185 0
h -46 -187 0
h -47 187 0
h -47 -188 0
h -48 188 0
h -48 -189 0
h -49 189 0
h -49 -190 0
h -50 190 0
h -51 -192 0
h -52 192 0
h -52 -193 0
h -53 193 0
h -53 -194 0
h -54 194 0
h -54 -195 0
h -55 195 0
h -56 -197 0
h -57 197 0
h -57 -198 0
h -58 198 0
h -58 -199 0
h -59 199 0
h -59 -200 0
h -60 200 0
h -61 -202 0
h -62 202 0
h -62 -203 0
h -63 203 0
h -63 -204 0
h -64 204 0
h -64 -205 0
h -65 205 0
h -66 -207 0
h -67 207 0
h -67 -208 0
h -68 208 0
h -68 -209 0
h -69 209 0
h -69 -210 0
h -70 210 0
h -71 -212 0
h -72 212 0
h -72 -213 0
h -73 213 0
h -73 -214 0
h -74 214 0
h -74 -215 0
h -75 215 0
h -76 -217 0
h -77 217 0
h -77 -218 0
h -78 218 0
h -78 -219 0
h -79 219 0
h -79 -220 0
h -80 220 0
h -81 -222 0
h -82 222 0
h -82 -223 0
h -83 223 0
h -83 -224 0
h -84 224 0
h -84 -225 0
h -85 225 0
h -86 -227 0
h -87 227 0
h -87 -228 0
h -88 228 0
h -88 -229 0
h -89 229 0
h -89 -230 0
h -90 230 0
h -91 -232 0
h -92 232 0
h -92 -233 0
h -93 233 0
h -93 -234 0
h -94 234 0
h -94 -235 0
h -95 235 0
h -96 -237 0
h -97 237 0
h -97 -238 0
h -98 238 0
h -98 -239 0
h -99 239 0
h -99 -240 0
h -100 240 0
h -101 -242 0
h -102 242 0
h -102 -243 0
h -103 243 0
h -103 -244 0
h -104 244 0
h -104 -245 0
h -105 245 0
h -106 -247 0
h -107 247 0
h -107 -248 0
h -108 248 0
h -108 -249 0
h -109 249 0
h -109 -250 0
h -110 250 0
h -111 -252 0
h -112 252 0
h -112 -253 0
h -113 253 0
h -113 -254 0
h -114 254 0
h -114 -255 0
h -115 255 0
h -116 -257 0
h -117 257 0
h -117 -258 0
h -118 258 0
h -118 -259 0
h -119 259 0
h -119 -260 0
h -120 260 0
h -121 -262 0
h -122 262 0
h -122 -263 0
h -123 263 0
h -123 -264 0
h -124 264 0
h -124 -265 0
h -125 265 0
h -126 -267 0
h -127 267 0
h -127 -268 0
h -128 268 0
h -128 -269 0
h -129 269 0
h -129 -270 0
h -130 270 0
h -131 -272 0
h -132 272 0
h -132 -273 0
h -133 273 0
h -133 -274 0
h -134 274 0
h -134 -275 0
h -135 275 0
h -136 -277 0
h -137 277 0
h -137 -278 0
h -138 278 0
h -138 -279 0
h -139 279 0
h -139 -280 0
h -140 280 0
h -142 141 0
h -143 142 0
h -144 143 0
h -145 144 0
h -147 146 0
h -148 147 0
h -149 148 0
h -150 149 0
h -152 151 0
h -153 152 0
h -154 153 0
h -155 154 0
h -157 156 0
h -158 157 0
h -159 158 0
h -160 159 0
h -162 161 0
h -163 162 0
h -164 163 0
h -165 164 0
h -167 166 0
h -168 167 0
h -169 168 0
h -170 169 0
h -172 171 0
h -173 172 0
h -174 173 0
h -175 174 0
h -177 176 0
h -178 177 0
h -179 178 0
h -180 179 0
h -182 181 0
h -183 182 0
h -184 183 0
h -185 184 0
h -187 186 0
h -188 187 0
h -189 188 0
h -190 189 0
h -192 191 0
h -193 192 0
h -194 193 0
h -195 194 0
h -197 196 0
h -198 197 0
h -199 198 0
h -200 199 0
h -202 201 0
h -203 202 0
h -204 203 0
h -205 204 0
h -207 206 0
h -208 207 0
h -209 208 0
h -210 209 0
h -212 211 0
h -213 212 0
h -214 213 0
h -215 214 0
h -217 216 0
h -218 217 0
h -219 218 0
h -220 219 0
h -222 221 0
h -223 222 0
h -224 223 0
h -225 224 0
h -227 226 0
h -228 227 0
h -229 228 0
h -230 229 0
h -232 231 0
h -233 232 0
h -234 233 0
h -235 234 0
h -237 236 0
h -238 237 0
h -239 238 0
h -240 239 0
h -242 241 0
h -243 242 0
h -244 243 0
h -245 244 0
h -247 246 0
h -248 247 0
h -249 248 0
h -250 249 0
h -252 251 0
h -253 252 0
h -254 253 0
h -255 254 0
h -257 256 0
h -258 257 0
h -259 258 0
h -260 259 0
h -262 261 0
h -263 262 0
h -264 263 0
h -265 264 0
h -267 266 0
h -268 267 0
h -269 268 0
h -270 269 0
h -272 271 0
h -273 272 0
h -274 273 0
h -275 274 0
h -277 276 0
h -278 277 0
h -279 278 0
h -280 279 0
1 -73 36 40 0
1 -74 37 39 40 0
1 -111 26 28 29 0
1 -112 26 27 28 30 0
1 -113 26 27 29 30 0
1 -115 26 27 28 29 0
1 -76 41 43 44 45 0
1 -78 41 42 43 45 0
1 -80 43 44 0
1 -21 61 62 63 64 0
1 -24 63 65 0
1 -25 61 62 63 64 0
1 -131 127 128 129 130 0
1 -132 126 127 130 0
1 -134 126 127 128 129 0
1 -135 126 127 128 129 0
1 -58 68 70 0
1 -59 67 68 69 70 0
1 -60 66 67 68 70 0
1 -77 26 27 29 0
1 -78 26 27 29 0
1 -79 27 28 29 30 0
1 -71 61 63 64 0
1 -72 61 62 64 65 0
1 -73 61 62 63 64 0
1 -75 61 63 64 65 0
1 -37 16 17 18 20 0
1 -38 16 18 19 20 0
1 -39 18 19 20 0
1 -40 16 17 18 20 0
1 -128 26 27 30 0
1 -129 27 28 29 0
1 -130 27 28 29 30 0
1 -82 61 62 63 64 0
1 -83 61 62 63 65 0
1 -84 62 63 64 0
1 -85 61 62 64 65 0
1 -33 101 102 103 105 0
1 -34 101 103 104 105 0
1 -35 102 105 0
1 -36 53 55 0
1 -40 53 54 55 0
1 -82 51 52 53 0
1 -84 52 53 54 0
1 -85 51 52 54 55 0
1 -82 21 22 23 25 0
1 -83 21 22 23 25 0
1 -84 21 22 23 24 0
1 -85 22 23 24 0
1 -66 72 74 0
1 -68 72 73 74 75 0
1 -70 71 72 73 75 0
1 -76 56 57 58 59 0
1 -77 58 59 60 0
1 -78 56 57 58 60 0
1 -80 57 58 59 60 0
1 -42 36 37 38 40 0
1 -43 36 38 39 40 0
1 -44 39 40 0
1 -117 107 108 109 0
1 -119 107 109 110 0
1 -120 106 107 109 110 0
1 -91 27 28 29 30 0
1 -93 26 29 30 0
1 -95 27 28 29 0
1 -131 101 102 104 105 0
1 -132 101 102 103 104 0
1 -134 101 102 103 104 0
1 -135 102 104 105 0
1 -41 7 9 0
1 -42 6 7 8 9 0
1 -44 6 7 8 10 0
1 -106 26 28 29 30 0
1 -107 27 28 29 30 0
1 -108 26 27 29 30 0
1 -109 26 27 28 30 0
1 -110 26 27 28 29 0
1 -101 16 17 19 20 0
1 -102 18 19 20 0
1 -104 17 18 20 0
1 -86 21 23 24 25 0
1 -88 21 22 25 0
1 -90 21 24 25 0
1 -62 41 43 44 45 0
1 -63 41 42 43 45 0
1 -64 42 44 45 0
1 -65 42 43 44 45 0
1 -46 31 32 33 34 0
1 -47 31 32 34 35 0
1 -49 31 32 33 0
1 -50 31 32 33 35 0
1 -41 21 23 24 25 0
1 -42 23 24 25 0
1 -44 21 22 25 0
1 -46 41 43 44 45 0
1 -47 41 43 44 45 0
1 -49 41 44 0
1 -21 2 4 5 0
1 -22 1 3 4 5 0
1 -23 1 3 4 5 0
1 -24 2 3 4 5 0
1 -96 46 47 48 50 0
1 -97 46 47 49 50 0
1 -98 46 47 48 49 0
1 -99 46 47 48 49 0
1 -100 46 48 49 50 0
1 -126 102 103 104 105 0
1 -128 102 103 104 105 0
1 -129 101 102 103 0
1 -130 101 102 104 105 0
1 -13 62 63 64 65 0
1 -14 62 65 0
1 -15 61 62 63 64 0
1 -61 6 7 8 10 0
1 -63 6 7 9 0
1 -65 7 9 10 0
1 -31 26 27 29 30 0
1 -33 26 27 28 30 0
1 -34 26 27 28 30 0
1 -35 26 29 30 0
1 -127 21 22 24 25 0
1 -128 21 22 23 24 0
1 -129 23 24 25 0
1 -130 21 23 24 25 0
1 -126 31 32 33 34 0
1 -128 31 32 34 35 0
1 -129 32 34 35 0
1 -130 31 33 34 35 0
1 -36 31 32 33 35 0
1 -38 31 32 33 0
1 -39 31 32 34 35 0
1 -40 31 32 34 35 0
1 -21 17 18 19 20 0
1 -22 17 18 19 20 0
1 -23 16 17 19 20 0
1 -24 16 18 19 20 0
1 -25 16 17 18 20 0
1 -102 111 112 113 0
1 -104 112 114 0
1 -112 106 107 108 109 0
1 -114 107 108 109 110 0
1 -115 106 108 0
1 -51 11 14 15 0
1 -52 11 12 13 0
1 -54 11 12 13 15 0
1 -92 81 83 84 85 0
1 -93 82 83 84 85 0
1 -95 82 85 0
1 -96 21 23 24 0
1 -97 22 23 24 25 0
1 -98 21 22 23 25 0
1 -99 22 23 24 25 0
1 -51 21 24 25 0
1 -52 21 23 24 0
1 -54 22 23 24 25 0
1 -7 22 23 0
1 -8 21 23 24 25 0
1 -9 21 23 24 25 0
1 -71 28 29 30 0
1 -72 27 28 29 30 0
1 -74 26 27 29 30 0
1 -75 26 27 28 30 0
1 -47 26 28 0
1 -48 26 27 29 30 0
1 -49 27 28 29 30 0
1 -98 36 37 38 40 0
1 -99 38 39 40 0
1 -100 37 39 40 0
1 -36 27 28 29 30 0
1 -38 26 27 28 30 0
1 -39 26 27 29 30 0
1 -40 26 27 30 0
1 -31 21 22 25 0
1 -32 22 23 24 25 0
1 -35 22 24 25 0
1 -121 17 19 20 0
1 -124 16 17 18 0
1 -125 16 18 19 20 0
1 -57 8 9 10 0
1 -58 6 9 10 0
1 -60 6 7 8 9 0
1 -137 131 133 134 135 0
1 -139 131 132 134 135 0
1 -140 133 134 0
1 -91 6 8 10 0
1 -92 6 7 8 9 0
1 -95 7 8 9 0
1 -121 102 103 104 105 0
1 -123 102 103 105 0
1 -125 101 102 104 0
1 -106 37 38 39 40 0
1 -107 36 37 38 39 0
1 -109 36 37 39 0
1 -110 36 37 39 40 0
1 -7 16 18 0
1 -9 16 17 18 19 0
1 -10 16 18 19 20 0
1 -26 2 3 4 5 0
1 -28 1 2 4 5 0
1 -30 3 5 0
1 -101 97 98 99 100 0
1 -103 96 99 100 0
1 -105 96 99 100 0
1 -27 7 8 9 10 0
1 -28 7 8 9 0
1 -29 6 7 8 10 0
1 -30 6 7 8 10 0
1 -22 11 12 14 15 0
1 -23 11 12 13 15 0
1 -24 11 13 15 0
1 -25 12 13 14 15 0
1 -51 26 28 29 0
1 -52 26 27 28 30 0
1 -54 26 27 28 30 0
1 -55 26 27 28 29 0
1 -136 26 27 29 30 0
1 -137 26 29 30 0
1 -140 28 29 30 0
1 -136 96 97 98 0
1 -137 96 98 99 100 0
1 -139 96 97 100 0
1 -31 136 137 138 140 0
1 -33 137 138 0
1 -35 136 138 139 140 0
1 -33 1 2 3 0
1 -34 2 3 5 0
1 -35 1 2 3 4 0
1 -57 22 24 25 0
1 -58 21 24 0
1 -136 22 23 24 25 0
1 -138 21 23 24 25 0
1 -139 21 22 23 0
1 -140 21 22 23 25 0
1 -26 21 22 24 25 0
1 -28 21 22 24 25 0
1 -29 21 24 0
1 -76 51 55 0
1 -78 52 53 54 55 0
1 -79 51 52 53 55 0
1 -86 61 63 64 0
1 -87 61 62 63 65 0
1 -88 61 62 63 64 0
1 -90 61 62 63 65 0
1 -96 1 3 4 5 0
1 -97 1 3 4 5 0
1 -98 2 3 5 0
1 -100 1 2 4 5 0
1 -116 36 37 38 40 0
1 -117 36 37 38 39 0
1 -118 36 37 38 39 0
1 -119 37 38 39 40 0
1 -120 36 37 38 40 0
1 -76 66 67 68 0
1 -77 66 68 69 70 0
1 -78 66 67 68 69 0
1 -79 67 68 69 70 0
1 -91 11 12 15 0
1 -92 11 12 14 15 0
1 -93 12 13 14 15 0
1 -95 11 12 13 15 0
1 -61 36 38 39 0
1 -63 36 37 39 40 0
1 -64 36 38 39 40 0
1 -65 37 38 39 40 0
1 -87 51 52 53 55 0
1 -88 53 54 0
1 -90 51 52 53 54 0
1 -106 21 22 23 24 0
1 -107 21 23 24 25 0
1 -108 22 24 25 0
1 -109 21 22 23 24 0
1 -12 1 2 3 4 0
1 -13 1 2 4 5 0
1 -14 1 4 5 0
1 -15 1 2 3 4 0
1 -86 6 7 8 10 0
1 -87 6 7 8 9 0
1 -88 6 7 8 10 0
1 -89 6 7 9 10 0
1 -90 6 7 9 10 0
1 -122 31 33 34 35 0
1 -123 31 33 35 0
1 -124 32 33 34 0
1 -56 53 54 0
1 -58 52 53 54 55 0
1 -59 51 52 53 55 0
1 -111 96 98 99 0
1 -113 96 97 99 0
1 -115 96 97 98 100 0
1 -86 42 43 45 0
1 -87 42 43 44 45 0
1 -88 41 43 44 0
1 -71 41 43 0
1 -74 42 43 44 45 0
1 -75 42 43 44 45 0
1 -66 51 53 54 55 0
1 -69 52 54 55 0
1 -70 52 53 55 0
1 -126 97 98 99 100 0
1 -127 96 97 98 99 0
1 -128 96 97 98 0
1 -130 96 98 99 100 0
1 -41 14 15 0
1 -43 11 12 13 15 0
1 -44 11 12 13 14 0
1 -12 8 9 10 0
1 -13 6 8 9 10 0
1 -14 6 7 8 10 0
1 -15 6 7 8 10 0
1 -121 36 37 39 40 0
1 -122 36 37 39 40 0
1 -123 36 37 38 39 0
1 -124 36 38 39 0
1 -66 37 40 0
1 -67 36 38 39 40 0
1 -68 36 37 38 39 0
1 -107 31 33 34 35 0
1 -109 32 34 0
1 -110 31 32 33 34 0
1 -27 81 82 83 84 0
1 -29 82 83 84 85 0
1 -30 82 84 0
1 -71 58 60 0
1 -72 56 57 58 60 0
1 -74 56 58 59 60 0
1 -51 93 95 0
1 -52 91 92 94 95 0
1 -53 92 93 94 95 0
1 -96 16 17 18 19 0
1 -99 17 18 0
1 -100 17 18 19 20 0
1 -106 46 48 49 50 0
1 -108 47 49 50 0
1 -109 46 47 48 50 0
1 -110 46 47 48 50 0
1 -132 31 34 35 0
1 -133 31 32 33 34 0
1 -134 31 34 35 0
1 -97 31 32 33 34 0
1 -98 31 33 34 35 0
1 -99 32 34 0
1 -111 16 17 18 19 0
1 -112 17 18 19 20 0
1 -113 16 17 18 19 0
1 -114 17 18 19 20 0
1 -115 16 17 18 20 0
1 -31 16 19 20 0
1 -32 16 17 18 20 0
1 -33 16 18 20 0
1 -31 12 13 14 15 0
1 -33 13 14 15 0
1 -34 11 12 13 15 0
1 -35 11 12 13 15 0
1 -136 36 39 40 0
1 -139 36 38 39 40 0
1 -140 37 39 40 0
1 -122 107 109 110 0
1 -124 106 107 108 110 0
1 -125 107 108 109 0
1 -132 23 24 25 0
1 -133 21 22 23 25 0
1 -134 22 24 25 0
1 -126 36 37 39 0
1 -129 36 37 38 40 0
1 -130 36 38 39 0
1 -28 11 13 15 0
1 -30 12 15 0
1 -117 31 33 34 35 0
1 -118 31 32 34 35 0
1 -119 31 33 35 0
1 -120 31 32 33 34 0
1 -106 1 2 3 5 0
1 -107 1 3 4 5 0
1 -108 1 5 0
1 -102 26 27 0
1 -104 26 27 29 30 0
1 -105 26 27 28 29 0
1 -117 17 18 19 0
1 -118 16 17 18 20 0
1 -119 17 18 20 0
1 -101 36 37 38 40 0
1 -103 36 37 38 39 0
1 -104 36 37 38 39 0
1 -105 38 39 40 0
1 -131 26 28 29 30 0
1 -133 26 27 28 29 0
1 -134 26 27 29 30 0
1 -135 26 27 29 0
1 -17 1 3 4 5 0
1 -18 2 3 4 5 0
1 -19 1 2 3 5 0
1 -20 1 2 5 0
1 -132 36 37 38 40 0
1 -133 36 37 39 40 0
1 -134 38 39 40 0
1 -135 36 37 39 40 0
1 -76 61 62 65 0
1 -78 61 62 63 64 0
1 -79 61 64 65 0
1 -113 31 32 33 0
1 -114 33 34 35 0
1 -115 31 33 34 35 0
1 -81 86 87 89 90 0
1 -83 89 90 0
1 -85 86 87 88 89 0
1 -58 36 39 0
1 -60 37 38 39 0
1 -67 41 42 44 45 0
1 -68 42 43 44 45 0
1 -69 41 43 44 45 0
1 -70 42 44 45 0
1 -42 2 4 5 0
1 -43 1 2 5 0
1 -45 1 2 3 5 0
1 -91 86 87 88 89 0
1 -92 86 87 89 90 0
1 -93 87 88 90 0
1 -95 86 87 89 90 0
1 -61 32 33 34 35 0
1 -62 31 32 33 0
1 -63 31 32 33 35 0
1 -65 31 32 34 35 0
1 -28 18 20 0
1 -29 16 17 18 20 0
1 -30 16 18 19 20 0
1 -106 16 17 20 0
1 -107 16 18 19 20 0
1 -108 16 17 18 19 0
1 -110 16 17 19 20 0
1 -6 3 4 5 0
1 -8 2 4 5 0
1 -9 1 2 3 4 0
1 -71 51 53 54 55 0
1 -72 52 53 54 0
1 -73 51 52 53 55 0
1 -74 51 53 54 55 0
1 -106 96 98 99 100 0
1 -108 96 97 98 100 0
1 -109 96 98 99 0
1 -110 97 98 99 100 0
1 -51 42 44 45 0
1 -52 41 42 43 0
1 -55 41 42 43 44 0
1 -37 13 14 0
1 -38 11 13 14 15 0
1 -40 11 12 13 15 0
1 -92 41 42 0
1 -93 41 42 45 0
1 -61 26 27 28 30 0
1 -62 26 27 29 30 0
1 -63 27 29 30 0
1 -65 27 28 29 30 0
1 -61 57 58 59 60 0
1 -62 56 57 59 0
1 -63 57 58 59 60 0
1 -64 56 57 59 60 0
1 -121 112 113 115 0
1 -123 111 112 113 114 0
1 -124 111 112 113 0
1 -81 6 7 9 10 0
1 -82 7 8 9 10 0
1 -83 8 9 10 0
1 -84 6 7 8 10 0
1 -71 6 7 8 10 0
1 -72 6 7 9 10 0
1 -73 7 8 10 0
1 -74 6 8 9 10 0
1 -68 26 28 29 30 0
1 -69 26 27 28 30 0
1 -70 28 29 0
1 -26 43 45 0
1 -29 41 42 45 0
1 -37 22 23 0
1 -38 21 22 23 25 0
1 -39 21 22 23 25 0
1 -51 61 63 64 65 0
1 -52 62 63 0
1 -53 62 63 64 65 0
1 -6 46 47 48 49 0
1 -9 46 47 49 50 0
1 -10 49 50 0
1 -77 71 73 74 75 0
1 -78 72 73 75 0
1 -80 71 73 74 0
1 -131 96 97 99 100 0
1 -132 96 98 100 0
1 -135 96 98 100 0
1 -46 1 2 4 5 0
1 -47 2 3 4 5 0
1 -48 1 2 3 4 0
1 -49 1 3 4 5 0
1 -50 1 3 4 5 0
1 -67 63 64 65 0
1 -68 61 63 64 65 0
1 -69 62 63 65 0
1 -42 31 33 35 0
1 -44 31 32 33 35 0
1 -45 31 32 34 0
1 -91 61 62 63 64 0
1 -92 61 62 64 65 0
1 -93 63 64 65 0
1 -94 61 62 63 64 0
1 -117 26 27 28 29 0
1 -119 26 27 29 0
1 -120 26 29 30 0
1 -101 46 49 50 0
1 -102 46 48 49 50 0
1 -104 46 47 48 50 0
1 -105 46 47 49 50 0
1 -46 12 14 15 0
1 -47 11 12 13 14 0
1 -50 12 13 14 0
1 -8 51 52 54 55 0
1 -9 51 52 53 55 0
1 -10 52 55 0
1 -111 36 38 39 0
1 -113 36 37 39 40 0
1 -114 36 37 38 40 0
1 -115 36 37 39 40 0
1 -21 48 50 0
1 -22 46 48 49 50 0
1 -25 46 47 49 50 0
1 -67 6 7 10 0
1 -69 6 7 9 10 0
1 -70 8 9 10 0
1 -41 16 17 18 19 0
1 -43 16 17 19 20 0
1 -44 16 17 18 20 0
1 -45 16 17 18 0
1 -122 97 98 99 100 0
1 -123 98 99 100 0
1 -125 96 99 100 0
1 -31 7 8 0
1 -33 6 7 8 10 0
1 -34 6 7 8 9 0
1 -131 46 49 50 0
1 -133 47 48 49 50 0
1 -134 46 47 48 50 0
1 -135 46 47 49 50 0
1 -36 3 5 0
1 -37 1 2 4 5 0
1 -38 1 2 3 5 0
1 -46 36 38 40 0
1 -47 36 37 38 40 0
1 -48 37 38 39 40 0
1 -49 36 38 39 40 0
1 -101 21 22 23 24 0
1 -103 21 23 24 25 0
1 -104 23 24 25 0
1 -105 21 22 23 24 0
1 -26 121 123 124 125 0
1 -28 121 122 124 125 0
1 -30 124 125 0
1 -56 31 33 34 35 0
1 -57 31 32 33 34 0
1 -58 31 32 33 35 0
1 -59 31 33 35 0
1 -16 11 12 13 15 0
1 -17 11 13 15 0
1 -18 12 13 14 15 0
1 -19 12 13 14 15 0
1 -76 36 38 39 40 0
1 -77 37 39 40 0
1 -78 36 38 39 0
1 -56 41 42 43 45 0
1 -57 41 43 44 45 0
1 -58 41 42 43 45 0
1 -60 43 44 45 0
1 -96 117 118 119 120 0
1 -97 116 117 118 119 0
1 -99 117 119 0
1 -78 8 9 10 0
1 -79 6 8 10 0
1 -80 7 8 9 10 0
1 -81 11 12 13 14 0
1 -84 12 13 14 0
1 -85 13 14 15 0
1 -136 46 47 48 49 0
1 -137 46 47 48 50 0
1 -139 46 47 49 50 0
1 -140 46 47 50 0
1 -81 42 43 45 0
1 -83 41 42 43 45 0
1 -84 41 43 44 45 0
1 -85 41 43 44 45 0
1 -56 26 27 28 29 0
1 -57 27 28 29 30 0
1 -58 26 29 30 0
1 -60 27 28 29 30 0
1 -101 1 3 4 5 0
1 -102 2 4 5 0
1 -105 3 4 5 0
1 -118 111 113 114 115 0
1 -119 111 113 115 0
1 -120 112 113 114 0
1 -96 26 27 28 30 0
1 -98 26 27 28 30 0
1 -99 26 27 28 29 0
1 -100 27 28 29 0
1 -36 7 8 10 0
1 -38 6 7 9 10 0
1 -40 6 8 10 0
1 -46 16 17 18 20 0
1 -47 17 19 20 0
1 -48 16 17 18 20 0
1 -49 16 17 18 19 0
1 -121 116 117 118 119 0
1 -122 117 118 119 120 0
1 -123 116 118 119 120 0
1 -124 116 118 119 120 0
1 -125 116 117 118 120 0
1 -106 101 103 105 0
1 -108 101 102 104 105 0
1 -109 101 102 103 105 0
1 -110 102 103 104 105 0
1 -26 87 88 89 90 0
1 -28 86 87 0
1 -29 86 88 89 90 0
1 -56 11 13 14 15 0
1 -57 12 14 15 0
1 -58 12 13 14 15 0
1 -59 11 12 13 14 0
1 -46 127 128 0
1 -48 126 127 128 129 0
1 -49 126 127 129 130 0
1 -136 126 128 130 0
1 -137 127 128 129 130 0
1 -138 127 128 129 0
1 -86 12 13 14 15 0
1 -89 11 0
1 -101 118 120 0
1 -102 117 118 119 120 0
1 -103 116 117 118 119 0
1 -91 21 22 23 24 0
1 -93 21 22 24 25 0
1 -94 22 23 24 25 0
1 -95 22 24 25 0
1 -101 137 138 139 140 0
1 -104 136 140 0
1 -105 136 137 139 140 0
1 -52 31 33 35 0
1 -53 33 34 35 0
1 -55 31 32 34 35 0
